2,3
3,9
5,5
7,1
8,7
10,3
12,0
14,2
16,4
18,5
20,7
22,9
25,1
27,3
29,4
31,6
33,8
36,0
38,2
40,4
42,6
44,8
46,3
46,3
46,3
46,3
46,3
46,3
46,3
46,3
46,3
46,3
46,3
46,3
46,3
46,3
46,3
46,3
46,3
46,3
46,3
46,3
46,3
46,3
46,3
46,3
46,3
46,3
46,3
46,3
46,3
46,3
46,3
0,0
0,0
0,0
